n_res = 4;
rcap = [17, 19, 89, 89];
rtype = [1, 1, 2, 2];
n_tasks = 16;
modes = [ {1}, {2}, {3}, {4}, {5}, {6}, {7}, {8}, {9}, {10}, {11}, {12}, {13}, {14}, {15}, {16} ];
succ = [ {5, 7, 9}, {4, 6, 7}, {7, 8, 15}, {5, 10}, {13}, {10, 11, 14}, {11, 12, 14}, {9, 11}, {12}, {15, 16}, {16}, {16}, {14, 15}, {}, {}, {} ];
n_opt = 16;
dur = [9, 4, 10, 6, 5, 6, 8, 4, 4, 1, 10, 2, 2, 7, 5, 3];
rreq = [|  6,  3,  5,  3,  7,  1,  4,  4,  4,  9,  6,  8,  4,  4,  1,  2
        |  8, 10, 10,  1,  4,  2,  7,  3,  3,  2,  4,  2,  3,  8,  1,  4
        |  5,  4,  6,  3,  4,  7, 10,  4,  7,  9,  5,  3,  6,  7,  2,  7
        |  3,  9,  5,  8,  3,  1,  4,  4,  3, 10,  6,  5,  6,  8,  8,  6 |];
